

******************************************************************************
This program contains Ipopt, a library for large-scale nonlinear optimization.
 Ipopt is released as open source code under the Eclipse Public License (EPL).
         For more information visit https://github.com/coin-or/Ipopt
******************************************************************************

This is Ipopt version 3.14.11, running with linear solver MUMPS 5.5.1.

Number of nonzeros in equality constraint Jacobian...:        4
Number of nonzeros in inequality constraint Jacobian.:        0
Number of nonzeros in Lagrangian Hessian.............:        3

Total number of variables............................:        2
                     variables with only lower bounds:        0
                variables with lower and upper bounds:        0
                     variables with only upper bounds:        0
Total number of equality constraints.................:        2
Total number of inequality constraints...............:        0
        inequality constraints with only lower bounds:        0
   inequality constraints with lower and upper bounds:        0
        inequality constraints with only upper bounds:        0

iter    objective    inf_pr   inf_du lg(mu)  ||d||  lg(rg) alpha_du alpha_pr  ls
   0 -1.0000000e+00 2.00e+01 0.00e+00  -1.0 0.00e+00    -  0.00e+00 0.00e+00   0
   1 -1.0000000e+00 2.06e+01 0.00e+00  -1.0 4.33e+00    -  1.00e+00 1.00e+00h  1
   2 -1.0000000e+00 2.35e+00 0.00e+00  -1.0 1.49e+00    -  1.00e+00 1.00e+00h  1
   3 -1.0000000e+00 5.59e-02 0.00e+00  -1.0 2.36e-01    -  1.00e+00 1.00e+00h  1
   4 -1.0000000e+00 5.33e-05 0.00e+00  -2.5 6.98e-03    -  1.00e+00 1.00e+00h  1
   5 -1.0000000e+00 1.25e-10 0.00e+00  -5.7 8.76e-06    -  1.00e+00 1.00e+00h  1

Number of Iterations....: 5

                                   (scaled)                 (unscaled)
Objective...............:  -1.0000000000000000e+00   -1.0000000000000000e+00
Dual infeasibility......:   0.0000000000000000e+00    0.0000000000000000e+00
Constraint violation....:   1.2535394944279687e-10    1.2535394944279687e-10
Variable bound violation:   0.0000000000000000e+00    0.0000000000000000e+00
Complementarity.........:   0.0000000000000000e+00    0.0000000000000000e+00
Overall NLP error.......:   1.2535394944279687e-10    1.2535394944279687e-10


Number of objective function evaluations             = 6
Number of objective gradient evaluations             = 6
Number of equality constraint evaluations            = 6
Number of inequality constraint evaluations          = 0
Number of equality constraint Jacobian evaluations   = 6
Number of inequality constraint Jacobian evaluations = 0
Number of Lagrangian Hessian evaluations             = 5
Total seconds in IPOPT                               = 0.004

EXIT: Optimal Solution Found.
 
Ipopt 3.14.11: Optimal Solution Found
